Problem:    modelo
Rows:       96
Columns:    66 (57 integer, 57 binary)
Non-zeros:  418
Status:     INTEGER OPTIMAL
Objective:  obj = 2125 (MINimum)

   No.   Row name        Activity     Lower bound   Upper bound
------ ------------    ------------- ------------- -------------
     1 obj                      2125
     2 c1[1]                       1             1             =
     3 c1[2]                       1             1             =
     4 c1[3]                       1             1             =
     5 c1[4]                       1             1             =
     6 c1[5]                       1             1             =
     7 c1[6]                       1             1             =
     8 c1[7]                       1             1             =
     9 partida                     1             1             =
    10 chegada                     1             1             =
    11 c4[1]                       0            -0             =
    12 c4[2]                       0            -0             =
    13 c4[3]                       0            -0             =
    14 c4[4]                       0            -0             =
    15 c4[5]                       0            -0             =
    16 c4[6]                       0            -0             =
    17 c4[7]                       0            -0             =
    18 c6[0,1]                 99999                       99999
    19 c6[0,2]                    -3                       99999
    20 c6[0,3]               -100000                       99999
    21 c6[0,4]                    -2                       99999
    22 c6[0,5]                -99999                       99999
    23 c6[0,6]                -99998                       99999
    24 c6[0,7]                -99997                       99999
    25 c6[0,8]               -100001                       99999
    26 c6[1,2]                    -2                       99999
    27 c6[1,3]                -99999                       99999
    28 c6[1,4]                 99999                       99999
    29 c6[1,5]                -99998                       99999
    30 c6[1,6]                -99997                       99999
    31 c6[1,7]                -99996                       99999
    32 c6[1,8]               -100000                       99999
    33 c6[2,1]                     2                       99999
    34 c6[2,3]                -99997                       99999
    35 c6[2,4]                     1                       99999
    36 c6[2,5]                -99996                       99999
    37 c6[2,6]                -99995                       99999
    38 c6[2,7]                     6                       99999
    39 c6[2,8]                -99998                       99999
    40 c6[3,1]                 99999                       99999
    41 c6[3,2]                 99997                       99999
    42 c6[3,4]                 99998                       99999
    43 c6[3,5]                     1                       99999
    44 c6[3,6]                     2                       99999
    45 c6[3,7]                     3                       99999
    46 c6[3,8]                 99999                       99999
    47 c6[4,1]                     1                       99999
    48 c6[4,2]                 99999                       99999
    49 c6[4,3]                -99998                       99999
    50 c6[4,5]                -99997                       99999
    51 c6[4,6]                -99996                       99999
    52 c6[4,7]                -99995                       99999
    53 c6[4,8]                -99999                       99999
    54 c6[5,1]                 99998                       99999
    55 c6[5,2]                 99996                       99999
    56 c6[5,3]                 99999                       99999
    57 c6[5,4]                 99997                       99999
    58 c6[5,6]                     1                       99999
    59 c6[5,7]                     2                       99999
    60 c6[5,8]                    -2                       99999
    61 c6[6,1]                 99997                       99999
    62 c6[6,2]                 99995                       99999
    63 c6[6,3]                    -2                       99999
    64 c6[6,4]                 99996                       99999
    65 c6[6,5]                 99999                       99999
    66 c6[6,7]                     1                       99999
    67 c6[6,8]                    -3                       99999
    68 c6[7,1]                 99996                       99999
    69 c6[7,2]                 99994                       99999
    70 c6[7,3]                    -3                       99999
    71 c6[7,4]                 99995                       99999
    72 c6[7,5]                    -2                       99999
    73 c6[7,6]                 99999                       99999
    74 c6[7,8]                    -4                       99999
    75 precedencia[0,1]
                                  -1                          -1
    76 precedencia[0,2]
                                  -3                          -1
    77 precedencia[0,3]
                             -100000                          -1
    78 precedencia[0,4]
                                  -2                          -1
    79 precedencia[0,5]
                              -99999                          -1
    80 precedencia[0,6]
                              -99998                          -1
    81 precedencia[0,7]
                              -99997                          -1
    82 precedencia[0,8]
                             -100001                          -1
    83 precedencia[1,4]
                                  -1                          -1
    84 precedencia[1,5]
                              -99998                          -1
    85 precedencia[1,6]
                              -99997                          -1
    86 precedencia[1,7]
                              -99996                          -1
    87 precedencia[1,8]
                             -100000                          -1
    88 precedencia[2,8]
                              -99998                          -1
    89 precedencia[3,8]
                                  -1                          -1
    90 precedencia[4,5]
                              -99997                          -1
    91 precedencia[4,8]
                              -99999                          -1
    92 precedencia[5,8]
                                  -2                          -1
    93 precedencia[6,5]
                                  -1                          -1
    94 precedencia[6,8]
                                  -3                          -1
    95 precedencia[7,5]
                                  -2                          -1
    96 precedencia[7,8]
                                  -4                          -1

   No. Column name       Activity     Lower bound   Upper bound
------ ------------    ------------- ------------- -------------
     1 x[0,1]       *              1             0             1
     2 x[0,2]       *              0             0             1
     3 x[0,3]       *              0             0             1
     4 x[0,4]       *              0             0             1
     5 x[0,5]       *              0             0             1
     6 x[0,6]       *              0             0             1
     7 x[0,7]       *              0             0             1
     8 x[0,8]       *              0             0             1
     9 x[1,2]       *              0             0             1
    10 x[1,3]       *              0             0             1
    11 x[1,4]       *              1             0             1
    12 x[1,5]       *              0             0             1
    13 x[1,6]       *              0             0             1
    14 x[1,7]       *              0             0             1
    15 x[1,8]       *              0             0             1
    16 x[2,1]       *              0             0             1
    17 x[2,3]       *              0             0             1
    18 x[2,4]       *              0             0             1
    19 x[2,5]       *              0             0             1
    20 x[2,6]       *              0             0             1
    21 x[2,7]       *              1             0             1
    22 x[2,8]       *              0             0             1
    23 x[3,1]       *              0             0             1
    24 x[3,2]       *              0             0             1
    25 x[3,4]       *              0             0             1
    26 x[3,5]       *              0             0             1
    27 x[3,6]       *              0             0             1
    28 x[3,7]       *              0             0             1
    29 x[3,8]       *              1             0             1
    30 x[4,1]       *              0             0             1
    31 x[4,2]       *              1             0             1
    32 x[4,3]       *              0             0             1
    33 x[4,5]       *              0             0             1
    34 x[4,6]       *              0             0             1
    35 x[4,7]       *              0             0             1
    36 x[4,8]       *              0             0             1
    37 x[5,1]       *              0             0             1
    38 x[5,2]       *              0             0             1
    39 x[5,3]       *              1             0             1
    40 x[5,4]       *              0             0             1
    41 x[5,6]       *              0             0             1
    42 x[5,7]       *              0             0             1
    43 x[5,8]       *              0             0             1
    44 x[6,1]       *              0             0             1
    45 x[6,2]       *              0             0             1
    46 x[6,3]       *              0             0             1
    47 x[6,4]       *              0             0             1
    48 x[6,5]       *              1             0             1
    49 x[6,7]       *              0             0             1
    50 x[6,8]       *              0             0             1
    51 x[7,1]       *              0             0             1
    52 x[7,2]       *              0             0             1
    53 x[7,3]       *              0             0             1
    54 x[7,4]       *              0             0             1
    55 x[7,5]       *              0             0             1
    56 x[7,6]       *              1             0             1
    57 x[7,8]       *              0             0             1
    58 s[0]                        0             0
    59 s[1]                        1             0
    60 s[2]                        3             0
    61 s[3]                   100000             0
    62 s[4]                        2             0
    63 s[5]                    99999             0
    64 s[6]                    99998             0
    65 s[7]                    99997             0
    66 s[8]                   100001             0

Integer feasibility conditions:

INT.PE: max.abs.err. = 0.00e+000 on row 0
        max.rel.err. = 0.00e+000 on row 0
        High quality

INT.PB: max.abs.err. = 0.00e+000 on row 0
        max.rel.err. = 0.00e+000 on row 0
        High quality

End of output
